param set_len = 14;
param target_sum = 2208983806;
param values := [1] 1062909161 [2] 40149151 [3] 156946173 [4] 1059039852 [5] 586459032 [6] 93707137 [7] 819494524 [8] 480004413 [9] 661812716 [10] 452537225 [11] 65828876 [12] 1002898462 [13] 12825127 [14] 336762919 ;
